NAME : traveling-santa-2018-prime-paths.30656.tour
COMMENT : Length = 30656
COMMENT : Found by LKH [Keld Helsgaun] Sun Jun 12 20:00:24 2022
TYPE : TOUR
DIMENSION : 100
TOUR_SECTION
1
27
42
56
37
39
59
19
31
89
60
80
49
32
83
73
14
71
4
52
97
50
40
57
90
25
38
55
9
44
8
78
16
51
62
53
93
26
13
75
10
12
58
82
91
54
36
65
86
100
67
11
87
64
30
84
94
41
29
96
35
99
81
76
22
18
66
34
79
3
92
69
88
5
61
70
98
48
45
28
7
6
74
77
15
47
72
33
46
17
85
68
23
20
95
43
2
24
21
63
-1
EOF
